12      4       
14      13      13      15      
0       0       0       0       0       3       2       3       4       
5       10      0       0       6       3       6       8       9       
5       7       0       10      0       1       7       
8       0       0       6       0       3       5       8       10      
2       3       2       2       0       1       7       
4       0       2       10      10      2       7       10      
7       0       2       0       9       1       11      
9       0       7       0       10      1       11      
4       6       0       0       0       1       12      
1       0       8       1       0       1       12      
2       1       0       0       9       1       12      
0       0       0       0       0       0       